GLPSOL: GLPK LP/MIP Solver, v4.65
Parameter(s) specified in the command line:
 -m tp.txt -d tp.dat -o tp_3.sol --cuts
Reading model section from tp.txt...
132 lines were read
Reading data section from tp.dat...
82 lines were read
Generating z...
Generating capMax...
Generating capMaxPj...
Generating unPjEnUnaCombi...
Generating pjPorCombi1...
Generating pjPorCombi2...
Generating saleUnaVezDeFilial...
Generating llegaUnaVezAFabrica...
Generating llegoUnaVez...
Generating salgoUnaVez...
Generating llegoAjDeOrigenYSalgo...
Generating salgoYLlego...
Generating fabricaFilial...
Generating nc1...
Generating nc2...
Generating nc3...
Generating ordenSiEnCombi...
Generating ordenes...
Generating fabricaFinal...
Generating kmCombi...
Generating cantCombis...
Generating maxCombis...
Generating usoCombiCotaMin...
Generating usoCombiCotaMax...
Generating calculoDuracion...
Generating maxDuracion...
Model has been successfully generated
GLPK Integer Optimizer, v4.65
5111 rows, 2662 columns, 28461 non-zeros
1449 integer variables, all of which are binary
Preprocessing...
123 hidden covering inequaliti(es) were detected
1143 constraint coefficient(s) were reduced
5102 rows, 2655 columns, 27180 non-zeros
1449 integer variables, all of which are binary
Scaling...
 A: min|aij| =  1.000e+00  max|aij| =  1.000e+06  ratio =  1.000e+06
GM: min|aij| =  5.994e-02  max|aij| =  1.668e+01  ratio =  2.784e+02
EQ: min|aij| =  3.782e-03  max|aij| =  1.000e+00  ratio =  2.644e+02
2N: min|aij| =  2.441e-03  max|aij| =  1.125e+00  ratio =  4.608e+02
Constructing initial basis...
Size of triangular part is 5099
Solving LP relaxation...
GLPK Simplex Optimizer, v4.65
5102 rows, 2655 columns, 27180 non-zeros
      0: obj =   0.000000000e+00 inf =   1.202e+02 (782)
    156: obj =   2.683526616e+03 inf =   1.732e-14 (0) 1
*   447: obj =   1.260000000e+03 inf =   6.152e-13 (0) 2
OPTIMAL LP SOLUTION FOUND
Integer optimization begins...
Long-step dual simplex will be used
Gomory's cuts enabled
MIR cuts enabled
Cover cuts enabled
Number of 0-1 knapsack inequalities = 350
Clique cuts enabled
Constructing conflict graph...
Conflict graph has 1449 + 66 = 1515 vertices
+   447: mip =     not found yet >=              -inf        (1; 0)
Cuts on level 0: gmi = 6; mir = 4; cov = 3; clq = 1;
Cuts on level 28: gmi = 6; mir = 4; cov = 3; clq = 1;
+  2574: >>>>>   3.720000000e+03 >=   1.660000000e+03  55.4% (29; 0)
Cuts on level 25: gmi = 6; mir = 5; cov = 3; clq = 1;
+  3377: >>>>>   3.660000000e+03 >=   1.660000000e+03  54.6% (51; 3)
+  6590: mip =   3.660000000e+03 >=   3.530000000e+03   3.6% (85; 17)
+  9353: mip =   3.660000000e+03 >=   3.560000000e+03   2.7% (197; 25)
Cuts on level 27: gmi = 8; mir = 19; cov = 3; clq = 1;
+ 11513: >>>>>   3.640000000e+03 >=   3.570000000e+03   1.9% (300; 30)
+ 13664: mip =   3.640000000e+03 >=   3.570000000e+03   1.9% (334; 126)
+ 15851: mip =   3.640000000e+03 >=   3.570000000e+03   1.9% (397; 136)
+ 18460: mip =   3.640000000e+03 >=   3.570000000e+03   1.9% (465; 147)
Cuts on level 10: gmi = 11; mir = 19; cov = 3; clq = 1;
+ 20151: >>>>>   3.620000000e+03 >=   3.570000000e+03   1.4% (520; 152)
+ 22334: mip =   3.620000000e+03 >=   3.570000000e+03   1.4% (418; 488)
+ 24345: mip =   3.620000000e+03 >=   3.570000000e+03   1.4% (486; 496)
+ 27167: mip =   3.620000000e+03 >=   3.570000000e+03   1.4% (545; 506)
+ 29239: mip =   3.620000000e+03 >=   3.570000000e+03   1.4% (609; 513)
Time used: 60.1 secs.  Memory used: 33.1 Mb.
+ 31186: mip =   3.620000000e+03 >=   3.570000000e+03   1.4% (661; 519)
+ 33377: mip =   3.620000000e+03 >=   3.570000000e+03   1.4% (733; 526)
+ 35376: mip =   3.620000000e+03 >=   3.570000000e+03   1.4% (804; 532)
+ 37134: mip =   3.620000000e+03 >=   3.580000000e+03   1.1% (858; 540)
+ 38921: mip =   3.620000000e+03 >=   3.580000000e+03   1.1% (874; 556)
+ 41494: mip =   3.620000000e+03 >=   3.580000000e+03   1.1% (918; 574)
+ 43823: mip =   3.620000000e+03 >=   3.580000000e+03   1.1% (968; 592)
+ 45922: mip =   3.620000000e+03 >=   3.580000000e+03   1.1% (1002; 609)
+ 48128: mip =   3.620000000e+03 >=   3.580000000e+03   1.1% (1047; 628)
+ 50671: mip =   3.620000000e+03 >=   3.580000000e+03   1.1% (1100; 642)
+ 53527: mip =   3.620000000e+03 >=   3.580000000e+03   1.1% (1145; 660)
Time used: 120.1 secs.  Memory used: 44.5 Mb.
+ 56124: mip =   3.620000000e+03 >=   3.580000000e+03   1.1% (1213; 679)
+ 58489: mip =   3.620000000e+03 >=   3.580000000e+03   1.1% (1249; 695)
+ 61285: mip =   3.620000000e+03 >=   3.580000000e+03   1.1% (1291; 713)
+ 63335: mip =   3.620000000e+03 >=   3.580000000e+03   1.1% (1327; 723)
+ 66243: mip =   3.620000000e+03 >=   3.580000000e+03   1.1% (1379; 741)
+ 68800: mip =   3.620000000e+03 >=   3.580000000e+03   1.1% (1417; 756)
+ 71071: mip =   3.620000000e+03 >=   3.580000000e+03   1.1% (1469; 770)
+ 73515: mip =   3.620000000e+03 >=   3.580000000e+03   1.1% (1531; 783)
+ 75635: mip =   3.620000000e+03 >=   3.580000000e+03   1.1% (1565; 798)
+ 78476: mip =   3.620000000e+03 >=   3.580000000e+03   1.1% (1602; 815)
+ 81568: mip =   3.620000000e+03 >=   3.580000000e+03   1.1% (1652; 831)
+ 84541: mip =   3.620000000e+03 >=   3.580000000e+03   1.1% (1695; 844)
Time used: 180.1 secs.  Memory used: 54.6 Mb.
+ 86635: mip =   3.620000000e+03 >=   3.580000000e+03   1.1% (1739; 856)
+ 89018: mip =   3.620000000e+03 >=   3.580000000e+03   1.1% (1802; 867)
+ 91417: mip =   3.620000000e+03 >=   3.580000000e+03   1.1% (1843; 879)
+ 93590: mip =   3.620000000e+03 >=   3.580000000e+03   1.1% (1871; 890)
+ 95666: mip =   3.620000000e+03 >=   3.580000000e+03   1.1% (1922; 901)
+ 98148: mip =   3.620000000e+03 >=   3.580000000e+03   1.1% (1962; 915)
+100537: mip =   3.620000000e+03 >=   3.580000000e+03   1.1% (2017; 928)
+102980: mip =   3.620000000e+03 >=   3.580000000e+03   1.1% (2060; 941)
+105513: mip =   3.620000000e+03 >=   3.580000000e+03   1.1% (2126; 951)
+107655: mip =   3.620000000e+03 >=   3.580000000e+03   1.1% (2189; 959)
+109922: mip =   3.620000000e+03 >=   3.580000000e+03   1.1% (2245; 968)
+112282: mip =   3.620000000e+03 >=   3.580000000e+03   1.1% (2278; 977)
Time used: 240.1 secs.  Memory used: 62.9 Mb.
+114267: mip =   3.620000000e+03 >=   3.580000000e+03   1.1% (2333; 985)
+116742: mip =   3.620000000e+03 >=   3.580000000e+03   1.1% (2385; 991)
+119208: mip =   3.620000000e+03 >=   3.580000000e+03   1.1% (2427; 1000)
+122205: mip =   3.620000000e+03 >=   3.580000000e+03   1.1% (2463; 1012)
+124368: mip =   3.620000000e+03 >=   3.580000000e+03   1.1% (2516; 1022)
+126677: mip =   3.620000000e+03 >=   3.580000000e+03   1.1% (2549; 1032)
+129192: mip =   3.620000000e+03 >=   3.580000000e+03   1.1% (2602; 1041)
+132247: mip =   3.620000000e+03 >=   3.580000000e+03   1.1% (2659; 1050)
+135912: mip =   3.620000000e+03 >=   3.590000000e+03   0.8% (2664; 1092)
+139708: mip =   3.620000000e+03 >=   3.590000000e+03   0.8% (2683; 1134)
+142951: mip =   3.620000000e+03 >=   3.590000000e+03   0.8% (2705; 1167)
+146309: mip =   3.620000000e+03 >=   3.590000000e+03   0.8% (2749; 1200)
Time used: 300.1 secs.  Memory used: 70.9 Mb.
+149519: mip =   3.620000000e+03 >=   3.590000000e+03   0.8% (2771; 1224)
+152631: mip =   3.620000000e+03 >=   3.590000000e+03   0.8% (2804; 1248)
+155498: mip =   3.620000000e+03 >=   3.590000000e+03   0.8% (2830; 1280)
+158583: mip =   3.620000000e+03 >=   3.590000000e+03   0.8% (2863; 1303)
+161882: mip =   3.620000000e+03 >=   3.590000000e+03   0.8% (2897; 1327)
+164789: mip =   3.620000000e+03 >=   3.590000000e+03   0.8% (2937; 1356)
+167750: mip =   3.620000000e+03 >=   3.590000000e+03   0.8% (2967; 1392)
+170964: mip =   3.620000000e+03 >=   3.590000000e+03   0.8% (3001; 1424)
+173846: mip =   3.620000000e+03 >=   3.590000000e+03   0.8% (3022; 1449)
+177260: mip =   3.620000000e+03 >=   3.590000000e+03   0.8% (3050; 1482)
+180501: mip =   3.620000000e+03 >=   3.590000000e+03   0.8% (3076; 1511)
+183894: mip =   3.620000000e+03 >=   3.590000000e+03   0.8% (3090; 1541)
Time used: 360.1 secs.  Memory used: 80.0 Mb.
+187228: mip =   3.620000000e+03 >=   3.590000000e+03   0.8% (3132; 1569)
+190440: mip =   3.620000000e+03 >=   3.590000000e+03   0.8% (3178; 1596)
+193706: mip =   3.620000000e+03 >=   3.590000000e+03   0.8% (3190; 1621)
+197162: mip =   3.620000000e+03 >=   3.590000000e+03   0.8% (3220; 1647)
+199965: mip =   3.620000000e+03 >=   3.590000000e+03   0.8% (3247; 1671)
Cuts on level 9: gmi = 14; mir = 37; cov = 3; clq = 1;
+201766: >>>>>   3.600000000e+03 >=   3.590000000e+03   0.3% (3256; 1688)
+204600: mip =   3.600000000e+03 >=   3.590000000e+03   0.3% (300; 8294)
+207711: mip =   3.600000000e+03 >=   3.590000000e+03   0.3% (257; 8467)
+210752: mip =   3.600000000e+03 >=   3.590000000e+03   0.3% (224; 8640)
+213395: mip =   3.600000000e+03 >=   3.590000000e+03   0.3% (194; 8780)
+216077: mip =   3.600000000e+03 >=   3.590000000e+03   0.3% (171; 8919)
+218880: mip =   3.600000000e+03 >=   3.590000000e+03   0.3% (135; 9068)
+221408: mip =   3.600000000e+03 >=   3.590000000e+03   0.3% (106; 9224)
Time used: 420.2 secs.  Memory used: 83.7 Mb.
+224728: mip =   3.600000000e+03 >=   3.590000000e+03   0.3% (82; 9374)
+228058: mip =   3.600000000e+03 >=   3.590000000e+03   0.3% (43; 9558)
+231524: mip =   3.600000000e+03 >=   3.590000000e+03   0.3% (3; 9815)
+231941: mip =   3.600000000e+03 >=     tree is empty   0.0% (0; 9869)
INTEGER OPTIMAL SOLUTION FOUND
Time used:   435.9 secs
Memory used: 85.2 Mb (89335059 bytes)
Writing MIP solution to 'tp_3.sol'...
